
Gurobi 10.0.1 (linux64) logging started Sun Nov 26 15:49:40 2023

Set parameter LogFile to value "ArtificialInstance/ExperimentV2/S3T5K1/BaDo/gurobi91.txt"
Gurobi Optimizer version 10.0.1 build v10.0.1rc0 (linux64)

CPU model: AMD EPYC 7H12 64-Core Processor, instruction set [SSE2|AVX|AVX2]
Thread count: 128 physical cores, 128 logical processors, using up to 32 threads

Academic license 656792 - for non-commercial use only - registered to b.___@student.vu.nl
Optimize a model with 420 rows, 720 columns and 2240 nonzeros
Model fingerprint: 0xca05efac
Variable types: 0 continuous, 720 integer (720 binary)
Coefficient statistics:
  Matrix range     [1e+00, 1e+00]
  Objective range  [2e+00, 2e+01]
  Bounds range     [1e+00, 1e+00]
  RHS range        [1e+00, 1e+00]
Found heuristic solution: objective 418.9666276
Presolve time: 0.00s
Presolved: 420 rows, 720 columns, 2240 nonzeros
Variable types: 0 continuous, 720 integer (720 binary)

Root relaxation: objective 3.510621e+01, 391 iterations, 0.00 seconds (0.00 work units)

    Nodes    |    Current Node    |     Objective Bounds      |     Work
 Expl Unexpl |  Obj  Depth IntInf | Incumbent    BestBd   Gap | It/Node Time

     0     0   35.10621    0   70  418.96663   35.10621  91.6%     -    0s
H    0     0                      78.2307962   35.10621  55.1%     -    0s
H    0     0                      76.2349458   35.10621  53.9%     -    0s
H    0     0                      39.3896514   39.38965  0.00%     -    0s
     0     0          -    0        39.38965   39.38965  0.00%     -    0s

Cutting planes:
  Gomory: 2
  Zero half: 8

Explored 1 nodes (655 simplex iterations) in 0.03 seconds (0.01 work units)
Thread count was 32 (of 128 available processors)

Solution count 4: 39.3897 76.2349 78.2308 418.967 

Optimal solution found (tolerance 1.00e-04)
Best objective 3.938965141046e+01, best bound 3.938965141046e+01, gap 0.0000%
